************************************************************************
file with basedata            : md373_.bas
initial value random generator: 454334768
************************************************************************
projects                      :  1
jobs (incl. supersource/sink ):  22
horizon                       :  160
RESOURCES
  - renewable                 :  2   R
  - nonrenewable              :  2   N
  - doubly constrained        :  0   D
************************************************************************
PROJECT INFORMATION:
pronr.  #jobs rel.date duedate tardcost  MPM-Time
    1     20      0       34       15       34
************************************************************************
PRECEDENCE RELATIONS:
jobnr.    #modes  #successors   successors
   1        1          3           2   3   4
   2        3          3           6  12  21
   3        3          2           5   7
   4        3          2          10  17
   5        3          3           6   8  17
   6        3          3          10  13  19
   7        3          1          15
   8        3          2           9  11
   9        3          3          12  14  19
  10        3          1          18
  11        3          2          16  21
  12        3          3          13  15  18
  13        3          1          16
  14        3          3          15  18  21
  15        3          1          16
  16        3          1          20
  17        3          2          19  20
  18        3          1          20
  19        3          1          22
  20        3          1          22
  21        3          1          22
  22        1          0        
************************************************************************
REQUESTS/DURATIONS:
jobnr. mode duration  R 1  R 2  N 1  N 2
------------------------------------------------------------------------
  1      1     0       0    0    0    0
  2      1     1       9    6    9    9
         2     7       8    5    9    8
         3    10       8    5    8    6
  3      1     8       6    7    5   10
         2     9       6    6    1    9
         3     9       3    6    4    8
  4      1     5       5    7    8    9
         2     7       4    6    7    5
         3     8       4    5    4    3
  5      1     4       4    8    6    7
         2     5       3    7    5    5
         3    10       3    5    4    1
  6      1     9       6    7    5    8
         2    10       6    5    5    6
         3    10       6    6    4    4
  7      1     1       3    4    5    8
         2     1       4    4    4    6
         3     3       3    3    4    1
  8      1     6       8    9    5    8
         2     9       8    9    5    5
         3    10       8    9    5    4
  9      1     7       4    3    4    5
         2    10       2    2    3    3
         3    10       3    2    2    3
 10      1     3      10    6    8    3
         2     4       7    4    7    3
         3     8       5    3    6    3
 11      1     6       9    7    6    8
         2     6       7    7    6    9
         3     8       3    6    5    7
 12      1     1      10   10    2    7
         2     5       9    7    1    6
         3     8       7    6    1    2
 13      1     2       5   10    7    9
         2     6       3   10    7    8
         3     7       1    9    7    6
 14      1     3       3    6    2    4
         2     4       3    6    1    4
         3     7       3    5    1    3
 15      1     4       5    2    7    7
         2     8       3    1    7    6
         3     9       3    1    6    6
 16      1     1       9    6   10    8
         2     4       9    5    9    8
         3     6       8    4    9    7
 17      1     7       7    9    5    6
         2     8       6    8    5    5
         3    10       5    8    5    4
 18      1     5       8    7    6    7
         2     5       8    4    7    7
         3     8       8    1    5    4
 19      1     1       3    3    9    6
         2     2       2    1    8    6
         3     2       3    1    7    6
 20      1     1       7    8    2    5
         2     1       9    8    2    4
         3     9       4    7    2    2
 21      1     2       9    8    5    2
         2     6       8    8    3    2
         3     8       4    7    3    2
 22      1     0       0    0    0    0
************************************************************************
RESOURCEAVAILABILITIES:
  R 1  R 2  N 1  N 2
   13   13  110  123
************************************************************************
MAXIMAL LAGS:
from  to  type  delay
    1   12   ES      0
    1    2   ES      0
    2   12   ES      0
    1    3   ES      0
    3   12   ES      0
    1    4   ES      0
    4   12   ES      0
    1    5   ES      0
    5   12   ES      0
    1    6   ES      0
    6   12   ES      0
    1    7   ES      0
    7   12   ES      0
    1    8   ES      0
    8   12   ES      0
    1    9   ES      0
    9   12   ES      0
    1   10   ES      0
   10   12   ES      0
    1   11   ES      0
   11   12   ES      0
    1   12   ES      0
    2    6   SS     -6
    2    6   SE      2
    2    6   ES      8
    2    6   EE     -4
    2   21   SS      8
    2   21   SE      2
    2   21   ES     11
    2   21   EE     -5
    3    5   SS      5
    3    5   SE     -9
    3    5   ES     -9
    3    5   EE     -5
    3    7   SS     -6
    3    7   SE      2
    3    7   ES    -11
    3    7   EE      9
    4   10   SS     -4
    4   10   SE      6
    4   10   ES     -4
    4   10   EE      0
    4   17   SS     -7
    4   17   SE     -3
    4   17   ES     -1
    4   17   EE     -2
    5    6   SS     -3
    5    6   SE    -12
    5    6   ES      2
    5    6   EE      3
    5    8   SS    -12
    5    8   SE    -12
    5    8   ES     -2
    5    8   EE     -5
    5   17   SS     -1
    5   17   SE     -2
    5   17   ES      8
    5   17   EE      4
    6   10   SS      4
    6   10   SE     -8
    6   10   ES     -6
    6   10   EE     -4
    6   13   SS      5
    6   13   SE     11
    6   13   ES     -9
    6   13   EE      9
    6   19   SS     -9
    6   19   SE     12
    6   19   ES      4
    6   19   EE    -12
    7   15   SS      9
    7   15   SE      5
    7   15   ES     -7
    7   15   EE      6
    8    9   SS      8
    8    9   SE     11
    8    9   ES     -5
    8    9   EE      4
    8   11   SS     -2
    8   11   SE    -11
    8   11   ES     -8
    8   11   EE     11
    9   14   SS      5
    9   14   SE     -4
    9   14   ES      3
    9   14   EE      3
    9   19   SS      6
    9   19   SE      5
    9   19   ES     12
    9   19   EE     -7
   10   18   SS     -2
   10   18   SE      4
   10   18   ES      3
   10   18   EE     11
   11   16   SS     -1
   11   16   SE     -5
   11   16   ES      2
   11   16   EE    -10
   11   21   SS     -1
   11   21   SE      1
   11   21   ES     12
   11   21   EE     -3
   12   13   SS     -9
   12   13   SE     -2
   12   13   ES     -5
   12   13   EE     -6
   12   15   SS     11
   12   15   SE    -11
   12   15   ES      2
   12   15   EE     12
   12   18   SS    -12
   12   18   SE      0
   12   18   ES      1
   12   18   EE      1
   13   16   SS      9
   13   16   SE      3
   13   16   ES    -11
   13   16   EE      8
   14   15   SS      9
   14   15   SE     10
   15   14   SE      0
   14   15   ES      0
   14   15   EE     -6
   14   18   SS     12
   14   18   SE     -5
   14   18   ES    -10
   14   18   EE     -9
   14   21   SS      6
   14   21   SE    -10
   14   21   ES     10
   14   21   EE      1
   15   16   SS     10
   15   16   SE    -10
   15   16   ES     -9
   15   16   EE      6
   16   20   SS     -2
   16   20   SE     -2
   16   20   ES     11
   16   20   EE     -5
   17   19   SS    -12
   17   19   SE      7
   17   19   ES     -5
   17   19   EE      3
   17   20   SS     -6
   17   20   SE     11
   17   20   ES     -9
   17   20   EE     -6
   18   20   SS     -4
   18   20   SE      9
   18   20   ES    -11
   18   20   EE     -5
   19   22   SS      3
   19   22   SE      3
   19   22   ES      7
   19   22   EE    -10
   20   22   SS      2
   20   22   SE    -12
   20   22   ES     12
   20   22   EE     -6
   21   22   SS      3
   21   22   SE      6
   21   22   ES      8
   21   22   EE      8
************************************************************************
